126
82
41
71
65
1
115
48
62
15
59
21
61
7
41
70
68
24
47
28
106
84
76
34
39
87
41
94
59
61
120
69
124
121
41
41
83
24
72
53
66
103
11
34
48
15
11
103
54
41
126
66
58
86
57
29
4
80
1
68
108
95
29
91
48
79
94
100
120
53
41
116
26
104
121
14
10
81
46
72
101
89
16
98
42
19
95
4
62
114
89
30
112
28
73
94
54
4
15
83
